3 
4  20 35 48 
5  05 23 43 58 
6  13 25 40 55 
7  10 25 40 55 
8  10 25 40 55 
9  10 25 40 55 
10  10 25 40 55 
11  10 25 40 55 
12  10 25 40 55 
13  10 25 40 55 
14  10 25 40 55 
15  10 25 40 55 
16  10 25 40 55 
17  10 25 40 55 
18  10 25 40 55 
19  10 25 40 55 
20  10 25 40 55 
21  10 25 40 55 
22  10 25 40 55 
23  17 
0 
